StudentsNr = 15;
InstructorsNr = 10;
DaysNr = 2;
SlotsPerDay = 10;
AvailabilitySlotsLenght = 2;
RoomNr = 2;
ProgrammNr = 2;
DegreeNr = 1;
RolesNr = 2;
CoursesNr = 3;
InstructorsProgramm = [{1, 2}, {1}, {1}, {1}, {2}, {1, 2}, {1}, {1, 2}, {1, 2}, {1}];
InstructorsRoles = [{}, {1, 2}, {}, {1, 2}, {1, 2}, {1, 2}, {}, {}, {}, {}];
InstructorsAvailability = [|1, 1, 1, 1, 1, 1, 0, 1, 1, 1, |0, 0, 0, 1, 1, 1, 1, 1, 1, 1, |1, 0, 1, 1, 1, 1, 1, 1, 1, 1, |1, 0, 0, 1, 1, 1, 1, 0, 1, 0, |0, 0, 1, 1, 1, 1, 1, 1, 1, 1, |0, 0, 0, 1, 1, 1, 1, 0, 0, 0, |0, 0, 0, 1, 1, 0, 0, 0, 1, 1, |1, 1, 1, 1, 1, 1, 1, 1, 1, 0, |0, 1, 1, 1, 1, 1, 1, 1, 1, 1, |1, 1, 1, 0, 0, 1, 0, 1, 1, 1|];
StudentsProgramm = [2, 2, 2, 2, 1, 1, 1, 2, 2, 2, 1, 1, 2, 1, 2];
StudentsDegree = [1, 1, 1, 1, 1, 1, 1, 1, 1, 1, 1, 1, 1, 1, 1];
StudentsSupervisorId = [9, 9, 9, 1, 6, 2, 7, 5, 8, 5, 9, 9, 9, 2, 5];
StudentsCourseIds = [{3}, {3}, {1}, {3}, {1}, {2}, {1}, {3}, {2}, {2}, {1}, {2}, {1}, {3}, {1}];
StudentsAvailability = [|0, 0, 1, 1, 1, 0, 0, 0, 0, 0, |0, 1, 0, 0, 0, 0, 0, 0, 1, 1, |1, 1, 1, 1, 1, 1, 1, 1, 1, 1, |1, 1, 1, 1, 1, 1, 1, 1, 1, 1, |1, 1, 0, 1, 1, 1, 1, 1, 1, 1, |0, 0, 0, 0, 0, 0, 1, 1, 1, 1, |1, 1, 1, 1, 1, 1, 1, 1, 1, 1, |1, 1, 1, 1, 1, 1, 1, 1, 0, 0, |1, 1, 1, 1, 0, 0, 0, 0, 0, 0, |0, 1, 0, 1, 1, 1, 1, 0, 1, 1, |0, 1, 0, 0, 0, 0, 0, 1, 1, 1, |1, 1, 1, 1, 1, 1, 1, 1, 1, 1, |0, 0, 0, 1, 1, 1, 1, 1, 1, 1, |1, 0, 0, 1, 0, 0, 0, 0, 1, 1, |1, 1, 1, 1, 1, 0, 0, 1, 1, 0|];
CoursesInstructorIds = [{1, 10}, {6, 7, 9}, {1, 3, 7}];
